WARNING: for repeatability, setting FPU to use double precision
============================[ Problem Statistics ]=============================
|                                                                             |
|  Number of variables:           190                                         |
|  Number of clauses:             632                                         |
|  Parse time:                   0.00 s                                       |
|                                                                             |
c ============================[ Search Statistics ]==============================
c | Conflicts |          ORIGINAL         |          LEARNT          | Progress |
c |           |    Vars  Clauses Literals |    Limit  Clauses Lit/Cl |          |
c ===============================================================================
c Switched to VSIDS.
c Switched to LRB.
c Switched to VSIDS.
c Switched to LRB.
c Switched to VSIDS.
c Switched to LRB.
c Switched to VSIDS.
c Switched to LRB.
c Switched to VSIDS.
c Switched to LRB.
c Switched to VSIDS.
c Switched to LRB.
c Switched to VSIDS.
c Switched to LRB.
c Switched to VSIDS.
c Switched to LRB.
c Switched to VSIDS.
c Switched to LRB.
c Switched to VSIDS.
c Switched to LRB.
c Switched to VSIDS.
c Switched to LRB.
c Switched to VSIDS.
c Switched to LRB.
c Switched to VSIDS.
c Switched to LRB.
c Switched to VSIDS.
c Switched to LRB.
c Switched to VSIDS.
c Switched to LRB.
c Switched to VSIDS.
c Switched to LRB.
c Switched to VSIDS.
c Switched to LRB.
c Switched to VSIDS.
c Switched to LRB.
c Switched to VSIDS.
c Switched to LRB.
c Switched to VSIDS.
c Switched to LRB.
c ===============================================================================
restarts                  : 6896
conflicts                 : 6332198        (1776 /sec)
decisions                 : 6890114        (0.00 % random) (1933 /sec)
propagations              : 15102660892    (4236060 /sec)
conflict literals         : 208870969      (31.45 % deleted)

conflicts w/ DIP found    : 4623815        (73.02 % of conflicts)
conflicts w/ dangerous DIP: 0              (0.00 % of conflicts)
conflicts w/ DIP-learning : 236333         (3.73 % of conflicts)
decisions on ext vars     : 344896         (5.01 % of decisions)
total ext vars            : 169238      
tried delete ext vars     : 168290      
deleted ext vars          : 168290      
max ext vars              : 2963        

Memory used               : 167.00 MB
CPU time                  : 3565.26 s
DIP computation time      : 52.851 s (1.48 % of total time)
ER_sel time               : 6.80449 s
ER_add time               : 0.536842 s
ER_delC time              : 0 s
ER_delV time              : 0.527634 s
ER_sub time               : 9.1224 s
ER_stat time              : 0 s

INDETERMINATE
